NAME 
ROWS
 N  OBJ
 E  28(1,1) 
 E  28(2,1) 
 E  28(3,1) 
 E  29(1,2) 
 E  29(1,3) 
 E  29(1,4) 
 E  29(1,5) 
 E  29(1,6) 
 E  29(1,7) 
 E  29(1,8) 
 E  29(1,9) 
 E  29(1,10)
 E  29(2,2) 
 E  29(2,3) 
 E  29(2,4) 
 E  29(2,5) 
 E  29(2,6) 
 E  29(2,7) 
 E  29(2,8) 
 E  29(2,9) 
 E  29(2,10)
 E  29(3,2) 
 E  29(3,3) 
 E  29(3,4) 
 E  29(3,5) 
 E  29(3,6) 
 E  29(3,7) 
 E  29(3,8) 
 E  29(3,9) 
 E  29(3,10)
 E  30(1,1,1)
 E  30(1,2,1)
 E  30(1,3,1)
 E  32(2,1,1)
 E  32(2,1,2)
 E  32(2,1,3)
 E  32(2,1,4)
 E  32(2,1,5)
 E  32(2,1,6)
 E  32(2,1,7)
 E  32(2,1,8)
 E  32(2,1,9)
 E  32(2,1,10)
 E  32(2,2,1)
 E  32(2,2,2)
 E  32(2,2,3)
 E  32(2,2,4)
 E  32(2,2,5)
 E  32(2,2,6)
 E  32(2,2,7)
 E  32(2,2,8)
 E  32(2,2,9)
 E  32(2,2,10)
 E  32(2,3,1)
 E  32(2,3,2)
 E  32(2,3,3)
 E  32(2,3,4)
 E  32(2,3,5)
 E  32(2,3,6)
 E  32(2,3,7)
 E  32(2,3,8)
 E  32(2,3,9)
 E  32(2,3,10)
 E  32(3,1,1)
 E  32(3,1,2)
 E  32(3,1,3)
 E  32(3,1,4)
 E  32(3,1,5)
 E  32(3,1,6)
 E  32(3,1,7)
 E  32(3,1,8)
 E  32(3,1,9)
 E  32(3,1,10)
 E  32(3,2,1)
 E  32(3,2,2)
 E  32(3,2,3)
 E  32(3,2,4)
 E  32(3,2,5)
 E  32(3,2,6)
 E  32(3,2,7)
 E  32(3,2,8)
 E  32(3,2,9)
 E  32(3,2,10)
 E  32(3,3,1)
 E  32(3,3,2)
 E  32(3,3,3)
 E  32(3,3,4)
 E  32(3,3,5)
 E  32(3,3,6)
 E  32(3,3,7)
 E  32(3,3,8)
 E  32(3,3,9)
 E  32(3,3,10)
 E  execution(1,1)
 E  execution(1,2)
 E  execution(1,3)
 E  execution(2,1)
 E  execution(2,2)
 E  execution(2,3)
 E  execution(3,1)
 E  execution(3,2)
 E  execution(3,3)
 G  fin(1)  
 G  fin(2)  
 G  fin(3)  
COLUMNS
    MARKER    'MARKER'                 'INTORG'
    f(1,1)    28(1,1)   -1
    f(1,1)    29(1,2)   1
    x(1,1,1)  28(1,1)   -1
    x(1,1,1)  29(1,2)   1
    x(1,1,1)  32(2,1,1)  -1
    x(1,1,1)  32(3,1,2)  1
    x(1,1,1)  execution(1,1)  1
    e(1,1,1)  32(2,1,1)  -1
    e(1,1,1)  32(2,1,2)  1
    x(1,2,1)  28(1,1)   -1
    x(1,2,1)  29(1,3)   1
    x(1,2,1)  32(3,2,1)  -1
    x(1,2,1)  execution(1,2)  1
    e(1,2,1)  32(3,2,1)  -1
    e(1,2,1)  32(3,2,2)  1
    x(1,3,1)  28(1,1)   -1
    x(1,3,1)  29(1,2)   1
    x(1,3,1)  32(3,3,1)  -1
    x(1,3,1)  execution(1,3)  1
    e(1,3,1)  32(3,3,1)  -1
    e(1,3,1)  32(3,3,2)  1
    f(1,2)    29(1,2)   -1
    f(1,2)    29(1,3)   1
    x(1,1,2)  29(1,2)   -1
    x(1,1,2)  29(1,3)   1
    x(1,1,2)  32(2,1,2)  -1
    x(1,1,2)  32(3,1,3)  1
    x(1,1,2)  execution(1,1)  1
    e(1,1,2)  32(2,1,2)  -1
    e(1,1,2)  32(2,1,3)  1
    x(1,2,2)  29(1,2)   -1
    x(1,2,2)  29(1,4)   1
    x(1,2,2)  32(3,2,2)  -1
    x(1,2,2)  execution(1,2)  1
    e(1,2,2)  32(3,2,2)  -1
    e(1,2,2)  32(3,2,3)  1
    x(1,3,2)  29(1,2)   -1
    x(1,3,2)  29(1,3)   1
    x(1,3,2)  32(3,3,2)  -1
    x(1,3,2)  execution(1,3)  1
    e(1,3,2)  32(3,3,2)  -1
    e(1,3,2)  32(3,3,3)  1
    f(1,3)    29(1,3)   -1
    f(1,3)    29(1,4)   1
    x(1,1,3)  29(1,3)   -1
    x(1,1,3)  29(1,4)   1
    x(1,1,3)  32(2,1,3)  -1
    x(1,1,3)  32(3,1,4)  1
    x(1,1,3)  execution(1,1)  1
    e(1,1,3)  32(2,1,3)  -1
    e(1,1,3)  32(2,1,4)  1
    x(1,2,3)  29(1,3)   -1
    x(1,2,3)  29(1,5)   1
    x(1,2,3)  32(3,2,3)  -1
    x(1,2,3)  execution(1,2)  1
    e(1,2,3)  32(3,2,3)  -1
    e(1,2,3)  32(3,2,4)  1
    x(1,3,3)  29(1,3)   -1
    x(1,3,3)  29(1,4)   1
    x(1,3,3)  32(3,3,3)  -1
    x(1,3,3)  execution(1,3)  1
    e(1,3,3)  32(3,3,3)  -1
    e(1,3,3)  32(3,3,4)  1
    f(1,4)    29(1,4)   -1
    f(1,4)    29(1,5)   1
    x(1,1,4)  29(1,4)   -1
    x(1,1,4)  29(1,5)   1
    x(1,1,4)  32(2,1,4)  -1
    x(1,1,4)  32(3,1,5)  1
    x(1,1,4)  execution(1,1)  1
    e(1,1,4)  32(2,1,4)  -1
    e(1,1,4)  32(2,1,5)  1
    x(1,2,4)  29(1,4)   -1
    x(1,2,4)  29(1,6)   1
    x(1,2,4)  32(3,2,4)  -1
    x(1,2,4)  execution(1,2)  1
    x(1,2,4)  fin(2)    -5
    e(1,2,4)  32(3,2,4)  -1
    e(1,2,4)  32(3,2,5)  1
    x(1,3,4)  29(1,4)   -1
    x(1,3,4)  29(1,5)   1
    x(1,3,4)  32(3,3,4)  -1
    x(1,3,4)  execution(1,3)  1
    x(1,3,4)  fin(3)    -4
    e(1,3,4)  32(3,3,4)  -1
    e(1,3,4)  32(3,3,5)  1
    f(1,5)    29(1,5)   -1
    f(1,5)    29(1,6)   1
    x(1,1,5)  29(1,5)   -1
    x(1,1,5)  29(1,6)   1
    x(1,1,5)  32(2,1,5)  -1
    x(1,1,5)  32(3,1,6)  1
    x(1,1,5)  execution(1,1)  1
    e(1,1,5)  32(2,1,5)  -1
    e(1,1,5)  32(2,1,6)  1
    x(1,2,5)  29(1,5)   -1
    x(1,2,5)  29(1,7)   1
    x(1,2,5)  32(3,2,5)  -1
    x(1,2,5)  execution(1,2)  1
    x(1,2,5)  fin(2)    -6
    e(1,2,5)  32(3,2,5)  -1
    e(1,2,5)  32(3,2,6)  1
    x(1,3,5)  29(1,5)   -1
    x(1,3,5)  29(1,6)   1
    x(1,3,5)  32(3,3,5)  -1
    x(1,3,5)  execution(1,3)  1
    x(1,3,5)  fin(3)    -5
    e(1,3,5)  32(3,3,5)  -1
    e(1,3,5)  32(3,3,6)  1
    f(1,6)    29(1,6)   -1
    f(1,6)    29(1,7)   1
    x(1,1,6)  29(1,6)   -1
    x(1,1,6)  29(1,7)   1
    x(1,1,6)  32(2,1,6)  -1
    x(1,1,6)  32(3,1,7)  1
    x(1,1,6)  execution(1,1)  1
    e(1,1,6)  32(2,1,6)  -1
    e(1,1,6)  32(2,1,7)  1
    x(1,2,6)  29(1,6)   -1
    x(1,2,6)  29(1,8)   1
    x(1,2,6)  32(3,2,6)  -1
    x(1,2,6)  execution(1,2)  1
    x(1,2,6)  fin(2)    -7
    e(1,2,6)  32(3,2,6)  -1
    e(1,2,6)  32(3,2,7)  1
    x(1,3,6)  29(1,6)   -1
    x(1,3,6)  29(1,7)   1
    x(1,3,6)  32(3,3,6)  -1
    x(1,3,6)  execution(1,3)  1
    x(1,3,6)  fin(3)    -6
    e(1,3,6)  32(3,3,6)  -1
    e(1,3,6)  32(3,3,7)  1
    f(1,7)    29(1,7)   -1
    f(1,7)    29(1,8)   1
    x(1,1,7)  29(1,7)   -1
    x(1,1,7)  29(1,8)   1
    x(1,1,7)  32(2,1,7)  -1
    x(1,1,7)  32(3,1,8)  1
    x(1,1,7)  execution(1,1)  1
    e(1,1,7)  32(2,1,7)  -1
    e(1,1,7)  32(2,1,8)  1
    x(1,2,7)  29(1,7)   -1
    x(1,2,7)  29(1,9)   1
    x(1,2,7)  32(3,2,7)  -1
    x(1,2,7)  execution(1,2)  1
    x(1,2,7)  fin(2)    -8
    e(1,2,7)  32(3,2,7)  -1
    e(1,2,7)  32(3,2,8)  1
    x(1,3,7)  29(1,7)   -1
    x(1,3,7)  29(1,8)   1
    x(1,3,7)  32(3,3,7)  -1
    x(1,3,7)  execution(1,3)  1
    x(1,3,7)  fin(3)    -7
    e(1,3,7)  32(3,3,7)  -1
    e(1,3,7)  32(3,3,8)  1
    f(1,8)    29(1,8)   -1
    f(1,8)    29(1,9)   1
    x(1,1,8)  29(1,8)   -1
    x(1,1,8)  29(1,9)   1
    x(1,1,8)  32(2,1,8)  -1
    x(1,1,8)  32(3,1,9)  1
    x(1,1,8)  execution(1,1)  1
    e(1,1,8)  32(2,1,8)  -1
    e(1,1,8)  32(2,1,9)  1
    x(1,2,8)  29(1,8)   -1
    x(1,2,8)  29(1,10)  1
    x(1,2,8)  32(3,2,8)  -1
    x(1,2,8)  execution(1,2)  1
    x(1,2,8)  fin(2)    -9
    e(1,2,8)  32(3,2,8)  -1
    e(1,2,8)  32(3,2,9)  1
    x(1,3,8)  29(1,8)   -1
    x(1,3,8)  29(1,9)   1
    x(1,3,8)  32(3,3,8)  -1
    x(1,3,8)  execution(1,3)  1
    x(1,3,8)  fin(3)    -8
    e(1,3,8)  32(3,3,8)  -1
    e(1,3,8)  32(3,3,9)  1
    f(1,9)    29(1,9)   -1
    f(1,9)    29(1,10)  1
    x(1,1,9)  29(1,9)   -1
    x(1,1,9)  29(1,10)  1
    x(1,1,9)  32(2,1,9)  -1
    x(1,1,9)  32(3,1,10)  1
    x(1,1,9)  execution(1,1)  1
    e(1,1,9)  32(2,1,9)  -1
    e(1,1,9)  32(2,1,10)  1
    x(1,2,9)  29(1,9)   -1
    x(1,2,9)  32(3,2,9)  -1
    x(1,2,9)  execution(1,2)  1
    x(1,2,9)  fin(2)    -10
    e(1,2,9)  32(3,2,9)  -1
    e(1,2,9)  32(3,2,10)  1
    x(1,3,9)  29(1,9)   -1
    x(1,3,9)  29(1,10)  1
    x(1,3,9)  32(3,3,9)  -1
    x(1,3,9)  execution(1,3)  1
    x(1,3,9)  fin(3)    -9
    e(1,3,9)  32(3,3,9)  -1
    e(1,3,9)  32(3,3,10)  1
    f(1,10)   29(1,10)  -1
    x(1,1,10)  29(1,10)  -1
    x(1,1,10)  32(2,1,10)  -1
    x(1,1,10)  execution(1,1)  1
    e(1,1,10)  32(2,1,10)  -1
    x(1,2,10)  29(1,10)  -1
    x(1,2,10)  32(3,2,10)  -1
    x(1,2,10)  execution(1,2)  1
    x(1,2,10)  fin(2)    -11
    e(1,2,10)  32(3,2,10)  -1
    x(1,3,10)  29(1,10)  -1
    x(1,3,10)  32(3,3,10)  -1
    x(1,3,10)  execution(1,3)  1
    x(1,3,10)  fin(3)    -10
    e(1,3,10)  32(3,3,10)  -1
    f(2,1)    28(2,1)   -1
    f(2,1)    29(2,2)   1
    x(2,1,1)  28(2,1)   -1
    x(2,1,1)  29(2,3)   1
    x(2,1,1)  32(3,1,1)  -1
    x(2,1,1)  execution(2,1)  1
    e(2,1,1)  32(3,1,1)  -1
    e(2,1,1)  32(3,1,2)  1
    x(2,2,1)  28(2,1)   -1
    x(2,2,1)  29(2,2)   1
    x(2,2,1)  30(1,2,1)  -1
    x(2,2,1)  32(2,2,2)  1
    x(2,2,1)  execution(2,2)  1
    e(2,2,1)  30(1,2,1)  -1
    x(2,3,1)  28(2,1)   -1
    x(2,3,1)  29(2,3)   1
    x(2,3,1)  32(2,3,1)  -1
    x(2,3,1)  32(3,3,3)  1
    x(2,3,1)  execution(2,3)  1
    e(2,3,1)  32(2,3,1)  -1
    e(2,3,1)  32(2,3,2)  1
    f(2,2)    29(2,2)   -1
    f(2,2)    29(2,3)   1
    x(2,1,2)  29(2,2)   -1
    x(2,1,2)  29(2,4)   1
    x(2,1,2)  32(3,1,2)  -1
    x(2,1,2)  execution(2,1)  1
    e(2,1,2)  32(3,1,2)  -1
    e(2,1,2)  32(3,1,3)  1
    x(2,2,2)  29(2,2)   -1
    x(2,2,2)  29(2,3)   1
    x(2,2,2)  32(2,2,3)  1
    x(2,2,2)  execution(2,2)  1
    e(2,2,2)  OBJ       0
    x(2,3,2)  29(2,2)   -1
    x(2,3,2)  29(2,4)   1
    x(2,3,2)  32(2,3,2)  -1
    x(2,3,2)  32(3,3,4)  1
    x(2,3,2)  execution(2,3)  1
    e(2,3,2)  32(2,3,2)  -1
    e(2,3,2)  32(2,3,3)  1
    f(2,3)    29(2,3)   -1
    f(2,3)    29(2,4)   1
    x(2,1,3)  29(2,3)   -1
    x(2,1,3)  29(2,5)   1
    x(2,1,3)  32(3,1,3)  -1
    x(2,1,3)  execution(2,1)  1
    e(2,1,3)  32(3,1,3)  -1
    e(2,1,3)  32(3,1,4)  1
    x(2,2,3)  29(2,3)   -1
    x(2,2,3)  29(2,4)   1
    x(2,2,3)  32(2,2,4)  1
    x(2,2,3)  execution(2,2)  1
    e(2,2,3)  OBJ       0
    x(2,3,3)  29(2,3)   -1
    x(2,3,3)  29(2,5)   1
    x(2,3,3)  32(2,3,3)  -1
    x(2,3,3)  32(3,3,5)  1
    x(2,3,3)  execution(2,3)  1
    e(2,3,3)  32(2,3,3)  -1
    e(2,3,3)  32(2,3,4)  1
    f(2,4)    29(2,4)   -1
    f(2,4)    29(2,5)   1
    x(2,1,4)  29(2,4)   -1
    x(2,1,4)  29(2,6)   1
    x(2,1,4)  32(3,1,4)  -1
    x(2,1,4)  execution(2,1)  1
    x(2,1,4)  fin(1)    -5
    e(2,1,4)  32(3,1,4)  -1
    e(2,1,4)  32(3,1,5)  1
    x(2,2,4)  29(2,4)   -1
    x(2,2,4)  29(2,5)   1
    x(2,2,4)  32(2,2,5)  1
    x(2,2,4)  execution(2,2)  1
    e(2,2,4)  OBJ       0
    x(2,3,4)  29(2,4)   -1
    x(2,3,4)  29(2,6)   1
    x(2,3,4)  32(2,3,4)  -1
    x(2,3,4)  32(3,3,6)  1
    x(2,3,4)  execution(2,3)  1
    e(2,3,4)  32(2,3,4)  -1
    e(2,3,4)  32(2,3,5)  1
    f(2,5)    29(2,5)   -1
    f(2,5)    29(2,6)   1
    x(2,1,5)  29(2,5)   -1
    x(2,1,5)  29(2,7)   1
    x(2,1,5)  32(3,1,5)  -1
    x(2,1,5)  execution(2,1)  1
    x(2,1,5)  fin(1)    -6
    e(2,1,5)  32(3,1,5)  -1
    e(2,1,5)  32(3,1,6)  1
    x(2,2,5)  29(2,5)   -1
    x(2,2,5)  29(2,6)   1
    x(2,2,5)  32(2,2,6)  1
    x(2,2,5)  execution(2,2)  1
    e(2,2,5)  OBJ       0
    x(2,3,5)  29(2,5)   -1
    x(2,3,5)  29(2,7)   1
    x(2,3,5)  32(2,3,5)  -1
    x(2,3,5)  32(3,3,7)  1
    x(2,3,5)  execution(2,3)  1
    e(2,3,5)  32(2,3,5)  -1
    e(2,3,5)  32(2,3,6)  1
    f(2,6)    29(2,6)   -1
    f(2,6)    29(2,7)   1
    x(2,1,6)  29(2,6)   -1
    x(2,1,6)  29(2,8)   1
    x(2,1,6)  32(3,1,6)  -1
    x(2,1,6)  execution(2,1)  1
    x(2,1,6)  fin(1)    -7
    e(2,1,6)  32(3,1,6)  -1
    e(2,1,6)  32(3,1,7)  1
    x(2,2,6)  29(2,6)   -1
    x(2,2,6)  29(2,7)   1
    x(2,2,6)  32(2,2,7)  1
    x(2,2,6)  execution(2,2)  1
    e(2,2,6)  OBJ       0
    x(2,3,6)  29(2,6)   -1
    x(2,3,6)  29(2,8)   1
    x(2,3,6)  32(2,3,6)  -1
    x(2,3,6)  32(3,3,8)  1
    x(2,3,6)  execution(2,3)  1
    e(2,3,6)  32(2,3,6)  -1
    e(2,3,6)  32(2,3,7)  1
    f(2,7)    29(2,7)   -1
    f(2,7)    29(2,8)   1
    x(2,1,7)  29(2,7)   -1
    x(2,1,7)  29(2,9)   1
    x(2,1,7)  32(3,1,7)  -1
    x(2,1,7)  execution(2,1)  1
    x(2,1,7)  fin(1)    -8
    e(2,1,7)  32(3,1,7)  -1
    e(2,1,7)  32(3,1,8)  1
    x(2,2,7)  29(2,7)   -1
    x(2,2,7)  29(2,8)   1
    x(2,2,7)  32(2,2,8)  1
    x(2,2,7)  execution(2,2)  1
    e(2,2,7)  OBJ       0
    x(2,3,7)  29(2,7)   -1
    x(2,3,7)  29(2,9)   1
    x(2,3,7)  32(2,3,7)  -1
    x(2,3,7)  32(3,3,9)  1
    x(2,3,7)  execution(2,3)  1
    e(2,3,7)  32(2,3,7)  -1
    e(2,3,7)  32(2,3,8)  1
    f(2,8)    29(2,8)   -1
    f(2,8)    29(2,9)   1
    x(2,1,8)  29(2,8)   -1
    x(2,1,8)  29(2,10)  1
    x(2,1,8)  32(3,1,8)  -1
    x(2,1,8)  execution(2,1)  1
    x(2,1,8)  fin(1)    -9
    e(2,1,8)  32(3,1,8)  -1
    e(2,1,8)  32(3,1,9)  1
    x(2,2,8)  29(2,8)   -1
    x(2,2,8)  29(2,9)   1
    x(2,2,8)  32(2,2,9)  1
    x(2,2,8)  execution(2,2)  1
    e(2,2,8)  OBJ       0
    x(2,3,8)  29(2,8)   -1
    x(2,3,8)  29(2,10)  1
    x(2,3,8)  32(2,3,8)  -1
    x(2,3,8)  32(3,3,10)  1
    x(2,3,8)  execution(2,3)  1
    e(2,3,8)  32(2,3,8)  -1
    e(2,3,8)  32(2,3,9)  1
    f(2,9)    29(2,9)   -1
    f(2,9)    29(2,10)  1
    x(2,1,9)  29(2,9)   -1
    x(2,1,9)  32(3,1,9)  -1
    x(2,1,9)  execution(2,1)  1
    x(2,1,9)  fin(1)    -10
    e(2,1,9)  32(3,1,9)  -1
    e(2,1,9)  32(3,1,10)  1
    x(2,2,9)  29(2,9)   -1
    x(2,2,9)  29(2,10)  1
    x(2,2,9)  32(2,2,10)  1
    x(2,2,9)  execution(2,2)  1
    e(2,2,9)  OBJ       0
    x(2,3,9)  29(2,9)   -1
    x(2,3,9)  32(2,3,9)  -1
    x(2,3,9)  execution(2,3)  1
    e(2,3,9)  32(2,3,9)  -1
    e(2,3,9)  32(2,3,10)  1
    f(2,10)   29(2,10)  -1
    x(2,1,10)  29(2,10)  -1
    x(2,1,10)  32(3,1,10)  -1
    x(2,1,10)  execution(2,1)  1
    x(2,1,10)  fin(1)    -11
    e(2,1,10)  32(3,1,10)  -1
    x(2,2,10)  29(2,10)  -1
    x(2,2,10)  execution(2,2)  1
    e(2,2,10)  OBJ       0
    x(2,3,10)  29(2,10)  -1
    x(2,3,10)  32(2,3,10)  -1
    x(2,3,10)  execution(2,3)  1
    e(2,3,10)  32(2,3,10)  -1
    f(3,1)    28(3,1)   -1
    f(3,1)    29(3,2)   1
    x(3,1,1)  28(3,1)   -1
    x(3,1,1)  29(3,3)   1
    x(3,1,1)  30(1,1,1)  -1
    x(3,1,1)  32(2,1,3)  1
    x(3,1,1)  execution(3,1)  1
    e(3,1,1)  30(1,1,1)  -1
    x(3,2,1)  28(3,1)   -1
    x(3,2,1)  29(3,3)   1
    x(3,2,1)  32(2,2,1)  -1
    x(3,2,1)  32(3,2,3)  1
    x(3,2,1)  execution(3,2)  1
    e(3,2,1)  32(2,2,1)  -1
    e(3,2,1)  32(2,2,2)  1
    x(3,3,1)  28(3,1)   -1
    x(3,3,1)  29(3,2)   1
    x(3,3,1)  30(1,3,1)  -1
    x(3,3,1)  32(2,3,2)  1
    x(3,3,1)  execution(3,3)  1
    e(3,3,1)  30(1,3,1)  -1
    f(3,2)    29(3,2)   -1
    f(3,2)    29(3,3)   1
    x(3,1,2)  29(3,2)   -1
    x(3,1,2)  29(3,4)   1
    x(3,1,2)  32(2,1,4)  1
    x(3,1,2)  execution(3,1)  1
    e(3,1,2)  OBJ       0
    x(3,2,2)  29(3,2)   -1
    x(3,2,2)  29(3,4)   1
    x(3,2,2)  32(2,2,2)  -1
    x(3,2,2)  32(3,2,4)  1
    x(3,2,2)  execution(3,2)  1
    e(3,2,2)  32(2,2,2)  -1
    e(3,2,2)  32(2,2,3)  1
    x(3,3,2)  29(3,2)   -1
    x(3,3,2)  29(3,3)   1
    x(3,3,2)  32(2,3,3)  1
    x(3,3,2)  execution(3,3)  1
    e(3,3,2)  OBJ       0
    f(3,3)    29(3,3)   -1
    f(3,3)    29(3,4)   1
    x(3,1,3)  29(3,3)   -1
    x(3,1,3)  29(3,5)   1
    x(3,1,3)  32(2,1,5)  1
    x(3,1,3)  execution(3,1)  1
    e(3,1,3)  OBJ       0
    x(3,2,3)  29(3,3)   -1
    x(3,2,3)  29(3,5)   1
    x(3,2,3)  32(2,2,3)  -1
    x(3,2,3)  32(3,2,5)  1
    x(3,2,3)  execution(3,2)  1
    e(3,2,3)  32(2,2,3)  -1
    e(3,2,3)  32(2,2,4)  1
    x(3,3,3)  29(3,3)   -1
    x(3,3,3)  29(3,4)   1
    x(3,3,3)  32(2,3,4)  1
    x(3,3,3)  execution(3,3)  1
    e(3,3,3)  OBJ       0
    f(3,4)    29(3,4)   -1
    f(3,4)    29(3,5)   1
    x(3,1,4)  29(3,4)   -1
    x(3,1,4)  29(3,6)   1
    x(3,1,4)  32(2,1,6)  1
    x(3,1,4)  execution(3,1)  1
    e(3,1,4)  OBJ       0
    x(3,2,4)  29(3,4)   -1
    x(3,2,4)  29(3,6)   1
    x(3,2,4)  32(2,2,4)  -1
    x(3,2,4)  32(3,2,6)  1
    x(3,2,4)  execution(3,2)  1
    e(3,2,4)  32(2,2,4)  -1
    e(3,2,4)  32(2,2,5)  1
    x(3,3,4)  29(3,4)   -1
    x(3,3,4)  29(3,5)   1
    x(3,3,4)  32(2,3,5)  1
    x(3,3,4)  execution(3,3)  1
    e(3,3,4)  OBJ       0
    f(3,5)    29(3,5)   -1
    f(3,5)    29(3,6)   1
    x(3,1,5)  29(3,5)   -1
    x(3,1,5)  29(3,7)   1
    x(3,1,5)  32(2,1,7)  1
    x(3,1,5)  execution(3,1)  1
    e(3,1,5)  OBJ       0
    x(3,2,5)  29(3,5)   -1
    x(3,2,5)  29(3,7)   1
    x(3,2,5)  32(2,2,5)  -1
    x(3,2,5)  32(3,2,7)  1
    x(3,2,5)  execution(3,2)  1
    e(3,2,5)  32(2,2,5)  -1
    e(3,2,5)  32(2,2,6)  1
    x(3,3,5)  29(3,5)   -1
    x(3,3,5)  29(3,6)   1
    x(3,3,5)  32(2,3,6)  1
    x(3,3,5)  execution(3,3)  1
    e(3,3,5)  OBJ       0
    f(3,6)    29(3,6)   -1
    f(3,6)    29(3,7)   1
    x(3,1,6)  29(3,6)   -1
    x(3,1,6)  29(3,8)   1
    x(3,1,6)  32(2,1,8)  1
    x(3,1,6)  execution(3,1)  1
    e(3,1,6)  OBJ       0
    x(3,2,6)  29(3,6)   -1
    x(3,2,6)  29(3,8)   1
    x(3,2,6)  32(2,2,6)  -1
    x(3,2,6)  32(3,2,8)  1
    x(3,2,6)  execution(3,2)  1
    e(3,2,6)  32(2,2,6)  -1
    e(3,2,6)  32(2,2,7)  1
    x(3,3,6)  29(3,6)   -1
    x(3,3,6)  29(3,7)   1
    x(3,3,6)  32(2,3,7)  1
    x(3,3,6)  execution(3,3)  1
    e(3,3,6)  OBJ       0
    f(3,7)    29(3,7)   -1
    f(3,7)    29(3,8)   1
    x(3,1,7)  29(3,7)   -1
    x(3,1,7)  29(3,9)   1
    x(3,1,7)  32(2,1,9)  1
    x(3,1,7)  execution(3,1)  1
    e(3,1,7)  OBJ       0
    x(3,2,7)  29(3,7)   -1
    x(3,2,7)  29(3,9)   1
    x(3,2,7)  32(2,2,7)  -1
    x(3,2,7)  32(3,2,9)  1
    x(3,2,7)  execution(3,2)  1
    e(3,2,7)  32(2,2,7)  -1
    e(3,2,7)  32(2,2,8)  1
    x(3,3,7)  29(3,7)   -1
    x(3,3,7)  29(3,8)   1
    x(3,3,7)  32(2,3,8)  1
    x(3,3,7)  execution(3,3)  1
    e(3,3,7)  OBJ       0
    f(3,8)    29(3,8)   -1
    f(3,8)    29(3,9)   1
    x(3,1,8)  29(3,8)   -1
    x(3,1,8)  29(3,10)  1
    x(3,1,8)  32(2,1,10)  1
    x(3,1,8)  execution(3,1)  1
    e(3,1,8)  OBJ       0
    x(3,2,8)  29(3,8)   -1
    x(3,2,8)  29(3,10)  1
    x(3,2,8)  32(2,2,8)  -1
    x(3,2,8)  32(3,2,10)  1
    x(3,2,8)  execution(3,2)  1
    e(3,2,8)  32(2,2,8)  -1
    e(3,2,8)  32(2,2,9)  1
    x(3,3,8)  29(3,8)   -1
    x(3,3,8)  29(3,9)   1
    x(3,3,8)  32(2,3,9)  1
    x(3,3,8)  execution(3,3)  1
    e(3,3,8)  OBJ       0
    f(3,9)    29(3,9)   -1
    f(3,9)    29(3,10)  1
    x(3,1,9)  29(3,9)   -1
    x(3,1,9)  execution(3,1)  1
    e(3,1,9)  OBJ       0
    x(3,2,9)  29(3,9)   -1
    x(3,2,9)  32(2,2,9)  -1
    x(3,2,9)  execution(3,2)  1
    e(3,2,9)  32(2,2,9)  -1
    e(3,2,9)  32(2,2,10)  1
    x(3,3,9)  29(3,9)   -1
    x(3,3,9)  29(3,10)  1
    x(3,3,9)  32(2,3,10)  1
    x(3,3,9)  execution(3,3)  1
    e(3,3,9)  OBJ       0
    f(3,10)   29(3,10)  -1
    x(3,1,10)  29(3,10)  -1
    x(3,1,10)  execution(3,1)  1
    e(3,1,10)  OBJ       0
    x(3,2,10)  29(3,10)  -1
    x(3,2,10)  32(2,2,10)  -1
    x(3,2,10)  execution(3,2)  1
    e(3,2,10)  32(2,2,10)  -1
    x(3,3,10)  29(3,10)  -1
    x(3,3,10)  execution(3,3)  1
    e(3,3,10)  OBJ       0
    C         OBJ       1
    C         fin(1)    1
    C         fin(2)    1
    C         fin(3)    1
    MARKER    'MARKER'                 'INTEND'
RHS
    RHS1      28(1,1)   -1
    RHS1      28(2,1)   -1
    RHS1      28(3,1)   -1
    RHS1      30(1,1,1)  -1
    RHS1      30(1,2,1)  -1
    RHS1      30(1,3,1)  -1
    RHS1      execution(1,1)  1
    RHS1      execution(1,2)  1
    RHS1      execution(1,3)  1
    RHS1      execution(2,1)  1
    RHS1      execution(2,2)  1
    RHS1      execution(2,3)  1
    RHS1      execution(3,1)  1
    RHS1      execution(3,2)  1
    RHS1      execution(3,3)  1
BOUNDS
 BV BND1      f(1,1)  
 BV BND1      x(1,1,1)
 BV BND1      e(1,1,1)
 BV BND1      x(1,2,1)
 BV BND1      e(1,2,1)
 BV BND1      x(1,3,1)
 BV BND1      e(1,3,1)
 BV BND1      f(1,2)  
 BV BND1      x(1,1,2)
 BV BND1      e(1,1,2)
 BV BND1      x(1,2,2)
 BV BND1      e(1,2,2)
 BV BND1      x(1,3,2)
 BV BND1      e(1,3,2)
 BV BND1      f(1,3)  
 BV BND1      x(1,1,3)
 BV BND1      e(1,1,3)
 BV BND1      x(1,2,3)
 BV BND1      e(1,2,3)
 BV BND1      x(1,3,3)
 BV BND1      e(1,3,3)
 BV BND1      f(1,4)  
 BV BND1      x(1,1,4)
 BV BND1      e(1,1,4)
 BV BND1      x(1,2,4)
 BV BND1      e(1,2,4)
 BV BND1      x(1,3,4)
 BV BND1      e(1,3,4)
 BV BND1      f(1,5)  
 BV BND1      x(1,1,5)
 BV BND1      e(1,1,5)
 BV BND1      x(1,2,5)
 BV BND1      e(1,2,5)
 BV BND1      x(1,3,5)
 BV BND1      e(1,3,5)
 BV BND1      f(1,6)  
 BV BND1      x(1,1,6)
 BV BND1      e(1,1,6)
 BV BND1      x(1,2,6)
 BV BND1      e(1,2,6)
 BV BND1      x(1,3,6)
 BV BND1      e(1,3,6)
 BV BND1      f(1,7)  
 BV BND1      x(1,1,7)
 BV BND1      e(1,1,7)
 BV BND1      x(1,2,7)
 BV BND1      e(1,2,7)
 BV BND1      x(1,3,7)
 BV BND1      e(1,3,7)
 BV BND1      f(1,8)  
 BV BND1      x(1,1,8)
 BV BND1      e(1,1,8)
 BV BND1      x(1,2,8)
 BV BND1      e(1,2,8)
 BV BND1      x(1,3,8)
 BV BND1      e(1,3,8)
 BV BND1      f(1,9)  
 BV BND1      x(1,1,9)
 BV BND1      e(1,1,9)
 BV BND1      x(1,2,9)
 BV BND1      e(1,2,9)
 BV BND1      x(1,3,9)
 BV BND1      e(1,3,9)
 BV BND1      f(1,10) 
 BV BND1      x(1,1,10)
 BV BND1      e(1,1,10)
 BV BND1      x(1,2,10)
 BV BND1      e(1,2,10)
 BV BND1      x(1,3,10)
 BV BND1      e(1,3,10)
 BV BND1      f(2,1)  
 BV BND1      x(2,1,1)
 BV BND1      e(2,1,1)
 BV BND1      x(2,2,1)
 BV BND1      e(2,2,1)
 BV BND1      x(2,3,1)
 BV BND1      e(2,3,1)
 BV BND1      f(2,2)  
 BV BND1      x(2,1,2)
 BV BND1      e(2,1,2)
 BV BND1      x(2,2,2)
 BV BND1      e(2,2,2)
 BV BND1      x(2,3,2)
 BV BND1      e(2,3,2)
 BV BND1      f(2,3)  
 BV BND1      x(2,1,3)
 BV BND1      e(2,1,3)
 BV BND1      x(2,2,3)
 BV BND1      e(2,2,3)
 BV BND1      x(2,3,3)
 BV BND1      e(2,3,3)
 BV BND1      f(2,4)  
 BV BND1      x(2,1,4)
 BV BND1      e(2,1,4)
 BV BND1      x(2,2,4)
 BV BND1      e(2,2,4)
 BV BND1      x(2,3,4)
 BV BND1      e(2,3,4)
 BV BND1      f(2,5)  
 BV BND1      x(2,1,5)
 BV BND1      e(2,1,5)
 BV BND1      x(2,2,5)
 BV BND1      e(2,2,5)
 BV BND1      x(2,3,5)
 BV BND1      e(2,3,5)
 BV BND1      f(2,6)  
 BV BND1      x(2,1,6)
 BV BND1      e(2,1,6)
 BV BND1      x(2,2,6)
 BV BND1      e(2,2,6)
 BV BND1      x(2,3,6)
 BV BND1      e(2,3,6)
 BV BND1      f(2,7)  
 BV BND1      x(2,1,7)
 BV BND1      e(2,1,7)
 BV BND1      x(2,2,7)
 BV BND1      e(2,2,7)
 BV BND1      x(2,3,7)
 BV BND1      e(2,3,7)
 BV BND1      f(2,8)  
 BV BND1      x(2,1,8)
 BV BND1      e(2,1,8)
 BV BND1      x(2,2,8)
 BV BND1      e(2,2,8)
 BV BND1      x(2,3,8)
 BV BND1      e(2,3,8)
 BV BND1      f(2,9)  
 BV BND1      x(2,1,9)
 BV BND1      e(2,1,9)
 BV BND1      x(2,2,9)
 BV BND1      e(2,2,9)
 BV BND1      x(2,3,9)
 BV BND1      e(2,3,9)
 BV BND1      f(2,10) 
 BV BND1      x(2,1,10)
 BV BND1      e(2,1,10)
 BV BND1      x(2,2,10)
 BV BND1      e(2,2,10)
 BV BND1      x(2,3,10)
 BV BND1      e(2,3,10)
 BV BND1      f(3,1)  
 BV BND1      x(3,1,1)
 BV BND1      e(3,1,1)
 BV BND1      x(3,2,1)
 BV BND1      e(3,2,1)
 BV BND1      x(3,3,1)
 BV BND1      e(3,3,1)
 BV BND1      f(3,2)  
 BV BND1      x(3,1,2)
 BV BND1      e(3,1,2)
 BV BND1      x(3,2,2)
 BV BND1      e(3,2,2)
 BV BND1      x(3,3,2)
 BV BND1      e(3,3,2)
 BV BND1      f(3,3)  
 BV BND1      x(3,1,3)
 BV BND1      e(3,1,3)
 BV BND1      x(3,2,3)
 BV BND1      e(3,2,3)
 BV BND1      x(3,3,3)
 BV BND1      e(3,3,3)
 BV BND1      f(3,4)  
 BV BND1      x(3,1,4)
 BV BND1      e(3,1,4)
 BV BND1      x(3,2,4)
 BV BND1      e(3,2,4)
 BV BND1      x(3,3,4)
 BV BND1      e(3,3,4)
 BV BND1      f(3,5)  
 BV BND1      x(3,1,5)
 BV BND1      e(3,1,5)
 BV BND1      x(3,2,5)
 BV BND1      e(3,2,5)
 BV BND1      x(3,3,5)
 BV BND1      e(3,3,5)
 BV BND1      f(3,6)  
 BV BND1      x(3,1,6)
 BV BND1      e(3,1,6)
 BV BND1      x(3,2,6)
 BV BND1      e(3,2,6)
 BV BND1      x(3,3,6)
 BV BND1      e(3,3,6)
 BV BND1      f(3,7)  
 BV BND1      x(3,1,7)
 BV BND1      e(3,1,7)
 BV BND1      x(3,2,7)
 BV BND1      e(3,2,7)
 BV BND1      x(3,3,7)
 BV BND1      e(3,3,7)
 BV BND1      f(3,8)  
 BV BND1      x(3,1,8)
 BV BND1      e(3,1,8)
 BV BND1      x(3,2,8)
 BV BND1      e(3,2,8)
 BV BND1      x(3,3,8)
 BV BND1      e(3,3,8)
 BV BND1      f(3,9)  
 BV BND1      x(3,1,9)
 BV BND1      e(3,1,9)
 BV BND1      x(3,2,9)
 BV BND1      e(3,2,9)
 BV BND1      x(3,3,9)
 BV BND1      e(3,3,9)
 BV BND1      f(3,10) 
 BV BND1      x(3,1,10)
 BV BND1      e(3,1,10)
 BV BND1      x(3,2,10)
 BV BND1      e(3,2,10)
 BV BND1      x(3,3,10)
 BV BND1      e(3,3,10)
 LI BND1      C         0
ENDATA
